NAME          ClpDefau
ROWS
 N  OBJROW
 L  R_80_0
 L  R_80_1
 L  R_80_2
 L  R_80_3
 L  R_80_4
 L  R_80_5
 L  R_80_6
 L  R_80_7
COLUMNS
    x_0       OBJROW     -8.           R_80_2    3.          
    x_1       OBJROW     -12.       
    x_2       OBJROW     -11.          R_80_2    3.          
    x_2       R_80_4    6.             R_80_5    9.          
    x_3       OBJROW     -47.          R_80_1    8.          
    x_4       OBJROW     -22.          R_80_2    7.          
    x_5       OBJROW     -95.       
    x_6       OBJROW     -86.          R_80_5    10.         
    x_7       OBJROW     -40.       
RHS
    RHS       R_80_0    5.             R_80_1    9.          
    RHS       R_80_2    10.            R_80_3    7.          
    RHS       R_80_4    3.             R_80_5    7.          
    RHS       R_80_6    2.             R_80_7    5.          
BOUNDS
 UI BOUND     x_0       100.        
 UI BOUND     x_1       100.        
 UI BOUND     x_2       100.        
 UI BOUND     x_3       100.        
 UI BOUND     x_4       100.        
 UI BOUND     x_5       100.        
 UI BOUND     x_6       100.        
 UI BOUND     x_7       100.        
ENDATA
